p cnf 20 20
-20 3 4 0
16 13 10 0
13 17 -19 0
9 20 -2 0
4 8 20 0
6 -19 -1 0
3 -10 12 0
-20 17 -14 0
7 17 -14 0
9 15 -5 0
1 17 -8 0
6 19 -14 0
15 -19 7 0
3 7 -10 0
20 16 19 0
10 -9 4 0
-8 14 7 0
13 7 -14 0
17 -20 1 0
-18 11 -5 0
